50
15100

374 267
559 492
556 366
294 994
32 719
318 692
530 191
254 628
820 668
431 222
180 59
280 399
883 57
248 544
799 244
78 32
525 484
410 384
333 18
797 52
536 394
951 407
668 692
483 270
385 664
860 555
6 288
899 264
941 395
770 201
193 648
352 455
2 595
205 75
902 78
110 187
712 230
165 633
985 660
246 692
267 232
218 338
681 677
914 482
486 884
163 146
39 974
426 297
857 324
606 59
